BAYES
324
2 2 2 2 2 2 2 2 2 2 2 2 2 2 2 2 2 2 2 2 2 2 2 2 2 2 2 2 2 2 2 2 2 2 2 2 2 2 2 2 2 2 2 2 2 2 2 2 2 2 2 2 2 2 2 2 2 2 2 2 2 2 2 2 2 2 2 2 2 2 2 2 2 2 2 2 2 2 2 2 2 2 2 2 2 2 2 2 2 2 2 2 2 2 2 2 2 2 2 2 2 2 2 2 2 2 2 2 2 2 2 2 2 2 2 2 2 2 2 2 2 2 2 2 2 2 2 2 2 2 2 2 2 2 2 2 2 2 2 2 2 2 2 2 2 2 2 2 2 2 2 2 2 2 2 2 2 2 2 2 2 2 2 2 2 2 2 2 2 2 2 2 2 2 2 2 2 2 2 2 2 2 2 2 2 2 2 2 2 2 2 2 2 2 2 2 2 2 2 2 2 2 2 2 2 2 2 2 2 2 2 2 2 2 2 2 2 2 2 2 2 2 2 2 2 2 2 2 2 2 2 2 2 2 2 2 2 2 2 2 2 2 2 2 2 2 2 2 2 2 2 2 2 2 2 2 2 2 2 2 2 2 2 2 2 2 2 2 2 2 2 2 2 2 2 2 2 2 2 2 2 2 2 2 2 2 2 2 2 2 2 2 2 2 2 2 2 2 2 2 2 2 2 2 2 2 2 2 2 2 2 2 2 2 2 2 2 2 2 2 2 2 2 2
324
3 18 1 0
3 19 2 1
3 20 3 2
3 21 4 3
3 22 5 4
3 23 6 5
3 24 7 6
3 25 8 7
3 26 9 8
3 27 10 9
3 28 11 10
3 29 12 11
3 30 13 12
3 31 14 13
3 32 15 14
3 33 16 15
3 34 17 16
2 35 17
3 36 19 18
3 37 20 19
3 38 21 20
3 39 22 21
3 40 23 22
3 41 24 23
3 42 25 24
3 43 26 25
3 44 27 26
3 45 28 27
3 46 29 28
3 47 30 29
3 48 31 30
3 49 32 31
3 50 33 32
3 51 34 33
3 52 35 34
2 53 35
3 54 37 36
3 55 38 37
3 56 39 38
3 57 40 39
3 58 41 40
3 59 42 41
3 60 43 42
3 61 44 43
3 62 45 44
3 63 46 45
3 64 47 46
3 65 48 47
3 66 49 48
3 67 50 49
3 68 51 50
3 69 52 51
3 70 53 52
2 71 53
3 72 55 54
3 73 56 55
3 74 57 56
3 75 58 57
3 76 59 58
3 77 60 59
3 78 61 60
3 79 62 61
3 80 63 62
3 81 64 63
3 82 65 64
3 83 66 65
3 84 67 66
3 85 68 67
3 86 69 68
3 87 70 69
3 88 71 70
2 89 71
3 90 73 72
3 91 74 73
3 92 75 74
3 93 76 75
3 94 77 76
3 95 78 77
3 96 79 78
3 97 80 79
3 98 81 80
3 99 82 81
3 100 83 82
3 101 84 83
3 102 85 84
3 103 86 85
3 104 87 86
3 105 88 87
3 106 89 88
2 107 89
3 108 91 90
3 109 92 91
3 110 93 92
3 111 94 93
3 112 95 94
3 113 96 95
3 114 97 96
3 115 98 97
3 116 99 98
3 117 100 99
3 118 101 100
3 119 102 101
3 120 103 102
3 121 104 103
3 122 105 104
3 123 106 105
3 124 107 106
2 125 107
3 126 109 108
3 127 110 109
3 128 111 110
3 129 112 111
3 130 113 112
3 131 114 113
3 132 115 114
3 133 116 115
3 134 117 116
3 135 118 117
3 136 119 118
3 137 120 119
3 138 121 120
3 139 122 121
3 140 123 122
3 141 124 123
3 142 125 124
2 143 125
3 144 127 126
3 145 128 127
3 146 129 128
3 147 130 129
3 148 131 130
3 149 132 131
3 150 133 132
3 151 134 133
3 152 135 134
3 153 136 135
3 154 137 136
3 155 138 137
3 156 139 138
3 157 140 139
3 158 141 140
3 159 142 141
3 160 143 142
2 161 143
3 162 145 144
3 163 146 145
3 164 147 146
3 165 148 147
3 166 149 148
3 167 150 149
3 168 151 150
3 169 152 151
3 170 153 152
3 171 154 153
3 172 155 154
3 173 156 155
3 174 157 156
3 175 158 157
3 176 159 158
3 177 160 159
3 178 161 160
2 179 161
3 180 163 162
3 181 164 163
3 182 165 164
3 183 166 165
3 184 167 166
3 185 168 167
3 186 169 168
3 187 170 169
3 188 171 170
3 189 172 171
3 190 173 172
3 191 174 173
3 192 175 174
3 193 176 175
3 194 177 176
3 195 178 177
3 196 179 178
2 197 179
3 198 181 180
3 199 182 181
3 200 183 182
3 201 184 183
3 202 185 184
3 203 186 185
3 204 187 186
3 205 188 187
3 206 189 188
3 207 190 189
3 208 191 190
3 209 192 191
3 210 193 192
3 211 194 193
3 212 195 194
3 213 196 195
3 214 197 196
2 215 197
3 216 199 198
3 217 200 199
3 218 201 200
3 219 202 201
3 220 203 202
3 221 204 203
3 222 205 204
3 223 206 205
3 224 207 206
3 225 208 207
3 226 209 208
3 227 210 209
3 228 211 210
3 229 212 211
3 230 213 212
3 231 214 213
3 232 215 214
2 233 215
3 234 217 216
3 235 218 217
3 236 219 218
3 237 220 219
3 238 221 220
3 239 222 221
3 240 223 222
3 241 224 223
3 242 225 224
3 243 226 225
3 244 227 226
3 245 228 227
3 246 229 228
3 247 230 229
3 248 231 230
3 249 232 231
3 250 233 232
2 251 233
3 252 235 234
3 253 236 235
3 254 237 236
3 255 238 237
3 256 239 238
3 257 240 239
3 258 241 240
3 259 242 241
3 260 243 242
3 261 244 243
3 262 245 244
3 263 246 245
3 264 247 246
3 265 248 247
3 266 249 248
3 267 250 249
3 268 251 250
2 269 251
3 270 253 252
3 271 254 253
3 272 255 254
3 273 256 255
3 274 257 256
3 275 258 257
3 276 259 258
3 277 260 259
3 278 261 260
3 279 262 261
3 280 263 262
3 281 264 263
3 282 265 264
3 283 266 265
3 284 267 266
3 285 268 267
3 286 269 268
2 287 269
3 288 271 270
3 289 272 271
3 290 273 272
3 291 274 273
3 292 275 274
3 293 276 275
3 294 277 276
3 295 278 277
3 296 279 278
3 297 280 279
3 298 281 280
3 299 282 281
3 300 283 282
3 301 284 283
3 302 285 284
3 303 286 285
3 304 287 286
2 305 287
3 306 289 288
3 307 290 289
3 308 291 290
3 309 292 291
3 310 293 292
3 311 294 293
3 312 295 294
3 313 296 295
3 314 297 296
3 315 298 297
3 316 299 298
3 317 300 299
3 318 301 300
3 319 302 301
3 320 303 302
3 321 304 303
3 322 305 304
2 323 305
2 307 306
2 308 307
2 309 308
2 310 309
2 311 310
2 312 311
2 313 312
2 314 313
2 315 314
2 316 315
2 317 316
2 318 317
2 319 318
2 320 319
2 321 320
2 322 321
2 323 322
1  323
8
0 1 1 0 0 1 1 0
8
0.4408754449358168 0.5591245550641832 0.08284961424110225 0.9171503857588977 0.8043852313803039 0.195614768619696 0.5995872598605174 0.40041274013948247
8
0.4373966726910012 0.5626033273089989 0.3482473847759436 0.6517526152240565 0.5607939935105625 0.4392060064894375 0.352592643619003 0.6474073563809971
8
0.789534408608826 0.210465591391174 0.9094644148695185 0.09053558513048156 0.7616060406195332 0.23839395938046679 0.49375914478721256 0.5062408552127874
8
0 1 0 1 0 1 1 0
8
1 0 1 0 1 0 0 1
8
0 1 0 1 1 0 1 0
8
1 0 0 1 1 0 0 1
8
0 1 1 0 1 0 1 0
8
0.3529058142310786 0.6470941857689214 0.4830596428812805 0.5169403571187196 0.1977711773216442 0.8022288226783558 0.38927294947550356 0.6107270505244964
8
0 1 1 0 1 0 0 1
8
1 0 1 0 0 1 0 1
8
0 1 1 0 0 1 0 1
8
0 1 0 1 1 0 1 0
8
1 0 1 0 0 1 1 0
8
1 0 1 0 0 1 0 1
8
1 0 1 0 1 0 1 0
4
0 1 0 1
8
1 0 1 0 1 0 0 1
8
1 0 1 0 1 0 0 1
8
1 0 0 1 0 1 0 1
8
0 1 1 0 1 0 1 0
8
0 1 0 1 0 1 0 1
8
1 0 1 0 0 1 1 0
8
1 0 1 0 0 1 1 0
8
0.38345286602209255 0.6165471339779075 0.7359128909971815 0.2640871090028185 0.9139405618174501 0.0860594381825499 0.43185053789808636 0.5681494621019136
8
1 0 1 0 0 1 0 1
8
1 0 0 1 0 1 1 0
8
1 0 0 1 1 0 0 1
8
1 0 1 0 0 1 0 1
8
0 1 0 1 0 1 0 1
8
1 0 1 0 0 1 0 1
8
1 0 0 1 0 1 1 0
8
0 1 0 1 0 1 1 0
8
1 0 0 1 1 0 0 1
4
1 0 1 0
8
0 1 1 0 1 0 0 1
8
1 0 0 1 0 1 0 1
8
1 0 0 1 1 0 1 0
8
0 1 0 1 1 0 1 0
8
0 1 0 1 1 0 0 1
8
0 1 0 1 1 0 1 0
8
0.4252466228673681 0.574753377132632 0.42133084523473546 0.5786691547652646 0.7076595597548272 0.2923404402451729 0.8173979055994334 0.18260209440056657
8
0 1 1 0 1 0 1 0
8
1 0 1 0 1 0 1 0
8
1 0 1 0 1 0 0 1
8
0 1 1 0 1 0 1 0
8
1 0 0 1 1 0 1 0
8
1 0 1 0 1 0 0 1
8
0 1 0 1 1 0 1 0
8
0.7482336356533288 0.2517663643466712 0.4143559547627507 0.5856440452372492 0.8834063253413366 0.11659367465866342 0.49618736090038856 0.5038126390996115
8
1 0 1 0 1 0 1 0
8
1 0 1 0 1 0 1 0
4
1 0 0 1
8
1 0 0 1 1 0 0 1
8
0 1 0 1 1 0 0 1
8
1 0 0 1 1 0 0 1
8
0 1 0 1 1 0 0 1
8
0 1 1 0 0 1 0 1
8
1 0 0 1 1 0 0 1
8
0 1 0 1 1 0 0 1
8
1 0 1 0 0 1 1 0
8
0 1 0 1 1 0 1 0
8
0 1 0 1 1 0 0 1
8
0 1 1 0 0 1 1 0
8
0 1 0 1 0 1 1 0
8
1 0 1 0 1 0 1 0
8
0 1 1 0 0 1 0 1
8
0 1 0 1 1 0 1 0
8
0 1 1 0 0 1 0 1
8
1 0 1 0 0 1 0 1
4
0.9616034352503896 0.03839656474961036 0.33371051294365245 0.6662894870563475
8
1 0 0 1 0 1 0 1
8
1 0 1 0 1 0 1 0
8
1 0 0 1 0 1 0 1
8
0.5258212383651213 0.47417876163487865 0.4513300476505413 0.5486699523494586 0.6618625855111957 0.33813741448880436 0.7579210284602375 0.24207897153976252
8
1 0 0 1 0 1 1 0
8
1 0 1 0 0 1 1 0
8
1 0 1 0 0 1 0 1
8
1 0 1 0 1 0 1 0
8
1 0 1 0 0 1 0 1
8
0 1 0 1 1 0 1 0
8
1 0 0 1 1 0 1 0
8
0 1 0 1 1 0 0 1
8
0 1 1 0 0 1 1 0
8
1 0 1 0 1 0 1 0
8
1 0 0 1 0 1 1 0
8
0 1 1 0 1 0 0 1
8
1 0 1 0 0 1 1 0
4
0 1 1 0
8
1 0 1 0 0 1 1 0
8
0 1 0 1 1 0 0 1
8
0 1 1 0 1 0 0 1
8
0 1 0 1 1 0 1 0
8
1 0 0 1 0 1 0 1
8
1 0 1 0 0 1 1 0
8
0 1 1 0 0 1 0 1
8
0 1 1 0 0 1 0 1
8
1 0 0 1 0 1 1 0
8
1 0 0 1 0 1 1 0
8
0 1 1 0 1 0 1 0
8
0.35837061647388 0.64162938352612 0.9329147005736336 0.06708529942636646 0.39495262672306103 0.6050473732769389 0.2643574016356147 0.7356425983643853
8
1 0 1 0 0 1 0 1
8
0.3132438834753435 0.6867561165246565 0.2968147640233099 0.7031852359766901 0.7393053152818498 0.2606946847181502 0.8531209680922172 0.14687903190778284
8
0 1 0 1 0 1 1 0
8
1 0 1 0 1 0 0 1
8
0 1 1 0 0 1 0 1
4
1 0 1 0
8
0 1 0 1 1 0 1 0
8
1 0 0 1 0 1 1 0
8
0 1 1 0 1 0 0 1
8
1 0 0 1 0 1 1 0
8
0 1 1 0 0 1 1 0
8
0 1 0 1 1 0 1 0
8
1 0 1 0 0 1 1 0
8
1 0 0 1 1 0 0 1
8
0 1 0 1 1 0 1 0
8
0 1 1 0 1 0 1 0
8
0 1 0 1 0 1 1 0
8
1 0 0 1 1 0 1 0
8
0 1 0 1 1 0 0 1
8
1 0 0 1 1 0 1 0
8
1 0 0 1 1 0 0 1
8
0.26616289372902646 0.7338371062709736 0.47132939127481727 0.5286706087251828 0.5267098260380787 0.4732901739619213 0.5622180722668118 0.43778192773318814
8
1 0 0 1 1 0 0 1
4
1 0 0 1
8
0 1 0 1 0 1 0 1
8
0.46638688823166763 0.5336131117683324 0.8421986418940386 0.15780135810596144 0.3020763480770873 0.6979236519229128 0.5124375089961434 0.4875624910038566
8
1 0 1 0 1 0 0 1
8
1 0 1 0 1 0 1 0
8
0 1 1 0 1 0 0 1
8
0 1 1 0 1 0 1 0
8
0 1 1 0 0 1 1 0
8
1 0 1 0 1 0 0 1
8
0.339579920939714 0.660420079060286 0.7608357882949509 0.23916421170504915 0.1423202827571961 0.8576797172428039 0.2856414104603857 0.7143585895396143
8
0 1 0 1 0 1 0 1
8
0 1 1 0 1 0 1 0
8
1 0 1 0 1 0 0 1
8
0 1 1 0 0 1 1 0
8
0 1 1 0 0 1 0 1
8
1 0 1 0 0 1 0 1
8
1 0 0 1 1 0 1 0
8
0 1 1 0 0 1 1 0
4
0 1 0 1
8
0 1 0 1 1 0 1 0
8
1 0 1 0 1 0 1 0
8
1 0 0 1 0 1 0 1
8
0.13971574598981526 0.8602842540101847 0.5003178783142166 0.4996821216857834 0.5243460495160902 0.47565395048390974 0.9972834077289487 0.0027165922710513024
8
1 0 0 1 1 0 1 0
8
1 0 1 0 1 0 1 0
8
0 1 0 1 0 1 1 0
8
0 1 0 1 1 0 0 1
8
0.532047235672235 0.467952764327765 0.8008854108461013 0.19911458915389876 0.18734574647100322 0.8126542535289968 0.37011020560589836 0.6298897943941016
8
0.021740362078567325 0.9782596379214327 0.40099661521150937 0.5990033847884907 0.2101536094061241 0.789846390593876 0.47109731894716184 0.5289026810528382
8
0 1 0 1 0 1 1 0
8
1 0 0 1 1 0 0 1
8
1 0 1 0 1 0 1 0
8
0 1 0 1 0 1 0 1
8
1 0 1 0 1 0 1 0
8
0.6144518013953005 0.38554819860469947 0.8224312005660444 0.1775687994339556 0.5395789209343246 0.46042107906567536 0.9508956258507582 0.04910437414924187
8
1 0 1 0 1 0 1 0
4
1 0 1 0
8
0 1 1 0 0 1 1 0
8
0 1 0 1 0 1 0 1
8
1 0 1 0 1 0 0 1
8
1 0 1 0 0 1 0 1
8
1 0 0 1 0 1 0 1
8
0 1 0 1 1 0 1 0
8
1 0 0 1 0 1 0 1
8
1 0 1 0 1 0 0 1
8
0 1 0 1 0 1 1 0
8
0 1 0 1 1 0 1 0
8
0 1 0 1 0 1 1 0
8
1 0 1 0 1 0 1 0
8
0.2649344086605932 0.7350655913394067 0.38828363094159046 0.6117163690584095 0.054151565247652175 0.9458484347523478 0.31786871625275115 0.682131283747249
8
0 1 1 0 0 1 0 1
8
0 1 0 1 0 1 0 1
8
1 0 1 0 0 1 0 1
8
1 0 0 1 0 1 1 0
4
0 1 0 1
8
1 0 0 1 0 1 1 0
8
0 1 1 0 1 0 1 0
8
1 0 0 1 1 0 0 1
8
1 0 0 1 0 1 0 1
8
1 0 1 0 1 0 0 1
8
0 1 0 1 1 0 0 1
8
0.5603132493348376 0.4396867506651624 0.7307760587451687 0.26922394125483123 0.2090904072541613 0.7909095927458387 0.9397998981840244 0.0602001018159756
8
0.06516565531483287 0.9348343446851671 0.1816580236579203 0.8183419763420797 0.511366759961459 0.488633240038541 0.680944742005473 0.31905525799452705
8
1 0 1 0 1 0 1 0
8
0 1 0 1 0 1 1 0
8
0 1 1 0 1 0 1 0
8
0 1 0 1 0 1 1 0
8
0 1 1 0 1 0 1 0
8
0 1 1 0 0 1 0 1
8
0.45537013204285104 0.544629867957149 0.9730209721179022 0.02697902788209788 0.33277617391695813 0.6672238260830419 0.6867365462285497 0.3132634537714502
8
0 1 1 0 1 0 1 0
8
0 1 1 0 1 0 0 1
4
0.4963579006246451 0.5036420993753549 0.31065297274603576 0.6893470272539642
8
0 1 0 1 1 0 0 1
8
1 0 0 1 1 0 0 1
8
0 1 0 1 0 1 1 0
8
0 1 0 1 1 0 0 1
8
0 1 1 0 1 0 1 0
8
1 0 0 1 0 1 1 0
8
1 0 0 1 1 0 0 1
8
0 1 0 1 1 0 1 0
8
0 1 0 1 0 1 1 0
8
1 0 1 0 0 1 1 0
8
1 0 1 0 1 0 0 1
8
1 0 1 0 1 0 1 0
8
1 0 0 1 1 0 0 1
8
1 0 1 0 1 0 0 1
8
1 0 0 1 0 1 0 1
8
1 0 1 0 1 0 0 1
8
1 0 1 0 0 1 1 0
4
1 0 0 1
8
0 1 1 0 1 0 0 1
8
0 1 1 0 0 1 0 1
8
1 0 0 1 0 1 1 0
8
0.28672319719265893 0.713276802807341 0.7057407653403021 0.29425923465969794 0.5670955117728737 0.43290448822712635 0.816665307490966 0.18333469250903395
8
0 1 1 0 1 0 1 0
8
0.8342443316009583 0.16575566839904163 0.7875204848942825 0.21247951510571753 0.4655969583653767 0.5344030416346233 0.012038892531567957 0.987961107468432
8
1 0 0 1 0 1 1 0
8
1 0 0 1 0 1 0 1
8
0 1 0 1 1 0 1 0
8
1 0 1 0 1 0 0 1
8
1 0 1 0 1 0 0 1
8
0 1 1 0 0 1 0 1
8
1 0 1 0 0 1 0 1
8
0 1 1 0 1 0 0 1
8
1 0 1 0 0 1 0 1
8
1 0 0 1 1 0 0 1
8
0 1 0 1 0 1 1 0
4
0 1 0 1
8
1 0 1 0 1 0 1 0
8
1 0 1 0 1 0 0 1
8
0 1 1 0 0 1 0 1
8
1 0 0 1 0 1 1 0
8
0 1 1 0 1 0 1 0
8
0.843441665666363 0.156558334333637 0.5029431433899596 0.49705685661004045 0.3103404172952409 0.689659582704759 0.9616706043932599 0.038329395606740084
8
1 0 0 1 0 1 1 0
8
0.6135600333125745 0.3864399666874255 0.5850514660343542 0.41494853396564585 0.46235723610666213 0.5376427638933379 0.6123437815197846 0.3876562184802154
8
0 1 1 0 1 0 1 0
8
0.4087824257360285 0.5912175742639715 0.8678689458524513 0.1321310541475486 0.5581251332006489 0.44187486679935106 0.03937354959126171 0.9606264504087384
8
1 0 1 0 1 0 1 0
8
0 1 0 1 0 1 1 0
8
0 1 1 0 0 1 0 1
8
0 1 1 0 1 0 0 1
8
1 0 0 1 1 0 1 0
8
1 0 1 0 0 1 1 0
8
1 0 0 1 1 0 0 1
4
1 0 0 1
8
0.7487603062121133 0.2512396937878867 0.49350622504748115 0.5064937749525188 0.25926693958793956 0.7407330604120604 0.32612840133304866 0.6738715986669513
8
0 1 0 1 0 1 1 0
8
0 1 1 0 0 1 1 0
8
0 1 0 1 1 0 0 1
8
1 0 0 1 0 1 0 1
8
0.08672060807554621 0.9132793919244538 0.9441337521371089 0.055866247862891044 0.5244229590947579 0.4755770409052422 0.027567469515560078 0.9724325304844399
8
0 1 1 0 0 1 1 0
8
0 1 1 0 0 1 1 0
8
1 0 1 0 1 0 0 1
8
0 1 1 0 1 0 1 0
8
1 0 1 0 0 1 0 1
8
0 1 1 0 0 1 0 1
8
0 1 1 0 1 0 1 0
8
0 1 0 1 0 1 1 0
8
0 1 1 0 1 0 1 0
8
0 1 1 0 0 1 0 1
8
0 1 1 0 1 0 0 1
4
1 0 0 1
8
1 0 1 0 0 1 1 0
8
1 0 1 0 1 0 0 1
8
0 1 0 1 0 1 0 1
8
1 0 1 0 0 1 1 0
8
1 0 1 0 0 1 0 1
8
1 0 1 0 1 0 1 0
8
1 0 1 0 0 1 0 1
8
1 0 1 0 0 1 0 1
8
1 0 1 0 1 0 0 1
8
1 0 0 1 0 1 0 1
8
1 0 1 0 0 1 1 0
8
0 1 0 1 1 0 1 0
8
1 0 1 0 1 0 1 0
8
1 0 1 0 1 0 0 1
8
0.3459874911012559 0.6540125088987442 0.1841172416230718 0.8158827583769281 0.6915665203753372 0.3084334796246629 0.4723147164728574 0.5276852835271427
8
0 1 1 0 1 0 0 1
8
1 0 0 1 0 1 1 0
4
0 1 0 1
8
1 0 1 0 1 0 0 1
8
0 1 1 0 0 1 1 0
8
0 1 1 0 0 1 0 1
8
0 1 0 1 1 0 0 1
8
1 0 1 0 0 1 1 0
8
0 1 1 0 0 1 1 0
8
0 1 0 1 1 0 0 1
8
0 1 0 1 1 0 0 1
8
0.243298884246462 0.7567011157535379 0.14721829889168472 0.8527817011083153 0.30673236391268643 0.6932676360873135 0.5607012644470478 0.43929873555295224
8
1 0 1 0 0 1 0 1
8
1 0 0 1 0 1 0 1
8
1 0 0 1 1 0 0 1
8
0 1 1 0 0 1 0 1
8
0 1 1 0 1 0 0 1
8
0 1 1 0 0 1 1 0
8
0 1 1 0 1 0 0 1
8
0 1 0 1 0 1 0 1
4
0 1 1 0
4
0 1 1 0
4
0 1 0 1
4
1 0 1 0
4
1 0 0 1
4
0 1 1 0
4
1 0 1 0
4
0.5447027825468317 0.4552972174531684 0.3280996253995954 0.6719003746004045
4
0 1 1 0
4
0 1 0 1
4
1 0 0 1
4
0 1 0 1
4
1 0 0 1
4
0 1 0 1
4
1 0 0 1
4
0 1 1 0
4
0 1 0 1
4
0 1 1 0
2
1 0
